========================================================== 
File name: C:\DEGR\assets\definitions\MSRCPSP_Gen\1000_40_1024_5_B.def
Creation date: Sat May 06 09:21:01 CEST 2023
Website: http://imopse.ii.pwr.edu.pl/ 
Reference: 
Myszkowski P. B., Skowronski M. E., Olech L., Oslizlo K., 
Hybrid Ant Colony Optimization in solving Multi-Skill Resource-Constrained Project Scheduling Problem, 
Soft Computing, DOI: DOI 10.1007/s00500-014-1455-x 
========================================================== 
General characteristics: 
Tasks: 1000
Resources: 40
Precedence relations: 1020
Number of skill types: 5
========================================================== 
ResourceID 	 Salary 	 Skills 
1	 	 	14.0	 	 Q1: 3 	 
2	 	 	32.1	 	 Q0: 0 	  Q3: 1 	  Q1: 0 	 
3	 	 	9.1	 	 Q0: 0 	  Q2: 2 	 
4	 	 	31.9	 	 Q0: 1 	  Q4: 3 	  Q3: 2 	 
5	 	 	90.3	 	 Q3: 0 	  Q2: 1 	 
6	 	 	37.5	 	 Q3: 3 	  Q2: 2 	  Q1: 0 	  Q4: 0 	 
7	 	 	61.5	 	 Q4: 2 	  Q3: 0 	 
8	 	 	22.9	 	 Q0: 1 	  Q4: 0 	 
9	 	 	26.0	 	 Q0: 1 	  Q2: 0 	  Q4: 2 	  Q3: 2 	 
10	 	 	43.1	 	 Q4: 2 	  Q0: 3 	  Q3: 1 	 
11	 	 	31.7	 	 Q2: 2 	  Q1: 1 	  Q4: 0 	  Q0: 2 	 
12	 	 	59.5	 	 Q4: 0 	  Q2: 3 	 
13	 	 	66.4	 	 Q3: 3 	  Q4: 0 	  Q1: 0 	 
14	 	 	99.4	 	 Q1: 2 	 
15	 	 	74.9	 	 Q2: 0 	  Q1: 3 	  Q3: 1 	  Q4: 1 	 
16	 	 	59.3	 	 Q1: 3 	 
17	 	 	16.7	 	 Q4: 0 	  Q1: 1 	  Q2: 1 	  Q0: 0 	 
18	 	 	16.1	 	 Q3: 3 	 
19	 	 	54.2	 	 Q2: 1 	  Q0: 1 	  Q3: 2 	  Q4: 2 	 
20	 	 	12.5	 	 Q2: 0 	  Q3: 1 	 
21	 	 	6.8	 	 Q4: 0 	 
22	 	 	60.2	 	 Q4: 2 	 
23	 	 	23.1	 	 Q4: 3 	  Q1: 3 	 
24	 	 	18.3	 	 Q3: 1 	  Q2: 0 	  Q4: 0 	 
25	 	 	34.3	 	 Q0: 1 	  Q4: 2 	 
26	 	 	10.5	 	 Q4: 0 	  Q2: 0 	 
27	 	 	80.3	 	 Q0: 1 	 
28	 	 	98.7	 	 Q1: 0 	  Q0: 1 	 
29	 	 	44.9	 	 Q1: 3 	 
30	 	 	11.6	 	 Q1: 0 	 
31	 	 	69.7	 	 Q3: 1 	  Q4: 2 	 
32	 	 	9.7	 	 Q1: 3 	 
33	 	 	89.0	 	 Q1: 2 	  Q3: 2 	  Q0: 1 	  Q4: 1 	 
34	 	 	15.1	 	 Q2: 3 	  Q0: 3 	  Q1: 1 	 
35	 	 	48.0	 	 Q1: 3 	 
36	 	 	46.7	 	 Q4: 2 	  Q2: 1 	 
37	 	 	12.6	 	 Q0: 1 	 
38	 	 	35.0	 	 Q3: 1 	  Q1: 1 	  Q0: 3 	 
39	 	 	13.6	 	 Q0: 1 	  Q3: 1 	  Q4: 3 	 
40	 	 	70.3	 	 Q2: 3 	  Q3: 3 	  Q0: 3 	 
========================================================== 
TaskID 	 Duration 	 Skill 	 Predecessor IDs 
1	31	Q1:	3
2	37	Q0:	1
3	21	Q0:	1
4	22	Q2:	1
5	34	Q3:	2
6	28	Q4:	2
7	17	Q0:	1
8	21	Q4:	3
9	10	Q1:	3
10	28	Q1:	0
11	36	Q3:	3
12	25	Q1:	2
13	22	Q0:	3
14	39	Q1:	2
15	24	Q4:	0
16	17	Q4:	0
17	14	Q2:	3
18	39	Q4:	0
19	12	Q0:	2
20	16	Q0:	3	12
21	29	Q1:	1
22	33	Q4:	2
23	34	Q2:	0
24	9	Q3:	1
25	19	Q3:	0
26	31	Q2:	2
27	10	Q2:	3
28	15	Q4:	0
29	9	Q1:	1
30	20	Q2:	1
31	21	Q1:	0
32	15	Q3:	3
33	20	Q0:	1
34	19	Q2:	2
35	27	Q2:	3
36	15	Q2:	2
37	19	Q3:	1
38	18	Q1:	3
39	20	Q3:	0
40	32	Q2:	0
41	40	Q3:	2
42	17	Q1:	2
43	31	Q1:	1
44	37	Q4:	0
45	13	Q1:	0	25
46	12	Q4:	2
47	38	Q3:	0
48	31	Q4:	3
49	37	Q1:	1
50	34	Q0:	1
51	32	Q3:	0
52	37	Q3:	2
53	39	Q3:	0
54	21	Q0:	1
55	40	Q3:	2
56	12	Q4:	3	8
57	9	Q4:	2
58	39	Q0:	0
59	30	Q0:	1
60	40	Q0:	0	45
61	21	Q3:	2
62	33	Q0:	2
63	14	Q3:	0	31
64	17	Q1:	3
65	35	Q3:	3
66	15	Q3:	3
67	37	Q0:	1	56
68	11	Q2:	1
69	35	Q2:	2
70	25	Q2:	1
71	24	Q1:	0
72	39	Q1:	1
73	12	Q3:	0
74	39	Q4:	1
75	29	Q0:	0
76	21	Q3:	3	11
77	38	Q3:	1
78	12	Q1:	0
79	21	Q1:	0
80	10	Q2:	0	49
81	15	Q4:	3
82	30	Q1:	2
83	25	Q3:	2	7
84	14	Q0:	0
85	33	Q4:	0
86	30	Q2:	3
87	23	Q0:	0
88	26	Q3:	3
89	28	Q1:	1
90	35	Q4:	0
91	17	Q4:	0	37
92	30	Q2:	1
93	10	Q0:	1	70
94	16	Q3:	1
95	40	Q3:	3
96	37	Q0:	1
97	25	Q0:	0
98	18	Q2:	1
99	32	Q1:	1
100	10	Q0:	1
101	19	Q0:	2
102	23	Q3:	0
103	40	Q1:	1
104	24	Q0:	2
105	15	Q4:	3
106	24	Q1:	3	12
107	15	Q3:	2
108	38	Q3:	2
109	38	Q4:	1	38
110	40	Q1:	2
111	20	Q0:	2
112	22	Q0:	1
113	10	Q1:	0
114	38	Q4:	3
115	18	Q3:	2	111
116	26	Q3:	0
117	28	Q2:	0
118	28	Q4:	1
119	29	Q1:	1
120	30	Q0:	0	77
121	38	Q4:	0
122	13	Q1:	2
123	24	Q4:	0
124	13	Q1:	1
125	9	Q1:	3
126	38	Q1:	3
127	9	Q0:	0
128	40	Q0:	2
129	9	Q4:	3
130	22	Q2:	1
131	39	Q2:	0
132	15	Q0:	2	113
133	26	Q4:	1
134	21	Q4:	3
135	34	Q0:	2
136	27	Q3:	2
137	10	Q2:	3
138	18	Q3:	3
139	9	Q2:	1	105
140	31	Q1:	3
141	34	Q2:	0
142	29	Q2:	0
143	39	Q3:	1
144	16	Q0:	2	77	7
145	18	Q2:	2
146	13	Q4:	0	85
147	23	Q3:	0
148	30	Q0:	0
149	20	Q1:	0
150	24	Q2:	0
151	22	Q2:	1
152	14	Q1:	0
153	10	Q1:	2
154	37	Q1:	0
155	35	Q2:	2
156	16	Q2:	2	63
157	9	Q3:	0
158	20	Q2:	1	44
159	38	Q4:	1
160	13	Q3:	0	26
161	25	Q3:	3
162	27	Q4:	3
163	39	Q0:	3
164	22	Q1:	3	14
165	14	Q1:	2
166	30	Q2:	1
167	13	Q3:	1
168	37	Q3:	0
169	34	Q4:	1
170	14	Q3:	0
171	32	Q4:	3	165
172	21	Q1:	0
173	17	Q4:	0
174	19	Q1:	3
175	37	Q4:	1
176	32	Q3:	0
177	15	Q1:	0
178	24	Q4:	3
179	40	Q3:	3
180	14	Q2:	1	136
181	32	Q2:	1
182	39	Q2:	2
183	33	Q0:	0	20
184	12	Q3:	1	130
185	30	Q1:	3
186	11	Q1:	3
187	12	Q1:	2
188	15	Q1:	3
189	15	Q2:	1
190	9	Q2:	2	154
191	32	Q1:	2
192	21	Q4:	3
193	26	Q3:	2
194	17	Q1:	1	54
195	37	Q0:	3
196	20	Q0:	1	30
197	28	Q4:	2
198	34	Q4:	1
199	17	Q2:	3
200	38	Q4:	2
201	32	Q2:	3
202	12	Q0:	1
203	21	Q2:	2
204	23	Q0:	1
205	39	Q4:	0	111
206	23	Q1:	2	155
207	11	Q2:	2	33
208	30	Q4:	1
209	16	Q2:	1
210	19	Q2:	1
211	38	Q0:	2
212	30	Q1:	1
213	13	Q1:	0	84
214	19	Q3:	2
215	34	Q2:	3
216	17	Q1:	1
217	13	Q1:	3	46
218	33	Q2:	2
219	37	Q0:	0	151
220	18	Q2:	0	57	21	156
221	12	Q3:	3
222	15	Q3:	3
223	37	Q4:	1
224	39	Q4:	1
225	35	Q3:	1
226	17	Q0:	0	203
227	22	Q1:	3
228	24	Q3:	0
229	40	Q1:	1
230	40	Q1:	2
231	27	Q4:	1
232	21	Q1:	0	99
233	17	Q4:	2
234	28	Q2:	2	151	169
235	13	Q4:	0
236	11	Q2:	0
237	15	Q3:	3	206
238	23	Q3:	3	174
239	37	Q0:	1	192
240	18	Q0:	2
241	14	Q4:	0	60
242	35	Q0:	2
243	11	Q3:	3	126	105
244	12	Q4:	3
245	30	Q2:	1
246	10	Q3:	3
247	34	Q0:	3
248	29	Q0:	1
249	22	Q2:	1
250	24	Q2:	1	3
251	12	Q0:	3	45
252	27	Q4:	2	43
253	26	Q4:	1	9
254	11	Q1:	2
255	20	Q2:	3
256	22	Q2:	0
257	22	Q4:	1	92
258	23	Q1:	2
259	16	Q3:	2
260	24	Q4:	2	251
261	18	Q2:	0
262	29	Q0:	0
263	9	Q3:	3
264	33	Q2:	1	246
265	10	Q0:	1
266	10	Q1:	2
267	9	Q3:	3	149
268	10	Q2:	2
269	25	Q2:	0
270	14	Q1:	3
271	28	Q4:	0	82
272	30	Q0:	2	86
273	16	Q2:	2	176
274	9	Q2:	1
275	38	Q3:	0	47
276	14	Q2:	0	55
277	25	Q2:	3
278	27	Q4:	0
279	37	Q4:	1
280	18	Q3:	1
281	25	Q2:	0	84
282	31	Q1:	1	9	176
283	14	Q4:	2
284	9	Q4:	0
285	17	Q2:	3
286	12	Q2:	0
287	18	Q0:	0
288	13	Q1:	1	6
289	14	Q2:	1
290	36	Q2:	3	217
291	19	Q1:	1
292	9	Q2:	2
293	34	Q4:	2
294	24	Q0:	1
295	24	Q1:	1
296	23	Q3:	0
297	26	Q3:	3
298	21	Q0:	2
299	13	Q2:	1	13
300	35	Q2:	1
301	38	Q2:	3
302	12	Q0:	1
303	40	Q2:	3
304	11	Q4:	3
305	33	Q1:	0
306	11	Q2:	0	176
307	34	Q4:	2
308	13	Q1:	1
309	25	Q0:	0
310	18	Q2:	1
311	28	Q3:	2
312	21	Q3:	2	201
313	11	Q4:	0	40
314	30	Q3:	0
315	14	Q3:	0	199
316	35	Q2:	0	262
317	19	Q4:	1	224	18
318	31	Q0:	2
319	33	Q3:	2	14
320	36	Q1:	2	184
321	20	Q0:	1	53	97
322	15	Q4:	0	304
323	16	Q2:	2	76	167
324	25	Q1:	0
325	33	Q2:	1
326	26	Q1:	1
327	37	Q1:	0
328	33	Q2:	0	259
329	33	Q3:	0	26	232	170
330	17	Q0:	2	299
331	38	Q1:	3	226
332	18	Q3:	1	202
333	35	Q2:	1	229
334	20	Q4:	1
335	13	Q0:	3
336	35	Q1:	2
337	39	Q2:	2
338	36	Q2:	3
339	17	Q2:	1
340	38	Q4:	2
341	36	Q3:	0
342	10	Q2:	0
343	37	Q0:	0
344	26	Q0:	1	320	176
345	13	Q3:	0	311
346	26	Q2:	2
347	19	Q1:	0
348	11	Q2:	3	213
349	13	Q0:	0	85	165	199	90	323	189	169
350	37	Q0:	1	279
351	34	Q0:	3
352	23	Q4:	0
353	28	Q2:	1
354	19	Q3:	3	219	197
355	25	Q4:	2	250
356	21	Q0:	3	93	138
357	22	Q4:	0
358	30	Q0:	1	113
359	40	Q2:	0	275
360	23	Q0:	1
361	13	Q4:	1
362	40	Q1:	1
363	35	Q2:	3
364	14	Q1:	1
365	39	Q1:	1	290
366	27	Q4:	1	112
367	33	Q4:	2	158
368	16	Q0:	3
369	36	Q3:	1	292
370	28	Q0:	1	214	9
371	35	Q4:	2	96
372	17	Q0:	3
373	19	Q1:	2	330	251	290
374	21	Q0:	1	323	24
375	16	Q3:	0	217
376	20	Q0:	3	20
377	20	Q2:	1	192
378	30	Q0:	3
379	35	Q2:	2
380	25	Q4:	1
381	27	Q2:	1	358	181
382	28	Q4:	3	200
383	26	Q1:	0	277	308	338
384	15	Q1:	3	328
385	40	Q2:	1
386	21	Q2:	2	227
387	28	Q3:	2	81
388	22	Q4:	3	17	274
389	12	Q4:	2	192
390	14	Q3:	2
391	39	Q3:	0	249
392	21	Q0:	3	164	111
393	35	Q2:	0	175
394	9	Q2:	0
395	16	Q4:	2	64
396	14	Q4:	0	11
397	27	Q2:	0	183
398	9	Q4:	0
399	22	Q3:	1	233
400	37	Q1:	1
401	32	Q1:	0
402	39	Q1:	3
403	38	Q2:	0	6
404	20	Q0:	1	47
405	23	Q3:	0	27
406	26	Q2:	0	238	361
407	18	Q4:	0	217
408	14	Q4:	0
409	17	Q1:	3	65
410	13	Q4:	1	198	267
411	29	Q4:	1	311
412	29	Q2:	1
413	16	Q2:	0	269	330
414	38	Q2:	2	165	371	289
415	38	Q2:	2
416	12	Q3:	1	153
417	24	Q1:	2
418	28	Q0:	0
419	38	Q4:	0	209	250	280
420	20	Q3:	0
421	33	Q0:	1
422	32	Q2:	1
423	32	Q3:	2	22
424	23	Q1:	1
425	13	Q1:	3	228
426	34	Q0:	0
427	21	Q2:	3	297	223	78
428	15	Q0:	3	11
429	12	Q4:	0	320
430	17	Q1:	1
431	18	Q4:	1
432	11	Q0:	2	297
433	26	Q4:	1	388	259
434	15	Q2:	1
435	39	Q2:	0	273
436	26	Q2:	2
437	14	Q0:	0	164	216	346
438	24	Q2:	1	381
439	22	Q2:	2	162	209
440	14	Q1:	1	335
441	39	Q3:	0	371	7
442	32	Q2:	1	195	78
443	40	Q2:	2
444	9	Q1:	3	87	48
445	17	Q3:	2
446	33	Q1:	0
447	18	Q0:	1
448	23	Q1:	2
449	32	Q0:	1	132	437
450	10	Q1:	3	298
451	8	Q1:	0	46
452	39	Q0:	0	365	266	135
453	25	Q3:	2	330
454	28	Q0:	3
455	13	Q2:	0	353
456	33	Q3:	1	32	125	146
457	19	Q3:	3	88
458	28	Q2:	2	187	57
459	38	Q3:	3	279	2
460	32	Q4:	2	108
461	34	Q3:	0	80	314	376
462	32	Q1:	1	387	29
463	40	Q2:	2	121	108
464	28	Q1:	3	378	281	10
465	29	Q0:	0
466	39	Q2:	3
467	34	Q0:	0	272
468	22	Q2:	3	374	71
469	28	Q1:	3	441
470	11	Q3:	3
471	31	Q1:	0	52	322	248
472	34	Q1:	2	448
473	32	Q2:	3	377
474	32	Q1:	3	347
475	28	Q0:	3	383
476	40	Q2:	0	244
477	10	Q4:	1
478	31	Q3:	3
479	28	Q3:	3
480	35	Q0:	0
481	32	Q1:	1	73
482	37	Q2:	2
483	17	Q0:	2	20
484	38	Q3:	3
485	32	Q1:	3	4
486	40	Q0:	0
487	28	Q0:	2
488	11	Q2:	3
489	24	Q3:	3
490	34	Q3:	1	381	344
491	23	Q4:	0	307
492	27	Q4:	0	486	489
493	33	Q4:	3
494	37	Q0:	2	272
495	32	Q4:	2	2
496	34	Q2:	1	163
497	10	Q3:	0
498	28	Q4:	1	450
499	26	Q0:	0	416
500	10	Q4:	0	347
501	14	Q3:	2	224
502	33	Q3:	0	440	254
503	13	Q4:	0
504	10	Q1:	1	32
505	24	Q1:	1	363	475	300
506	28	Q4:	0	183
507	27	Q2:	3	206
508	19	Q4:	1
509	21	Q0:	2	108
510	40	Q3:	1
511	24	Q2:	3
512	9	Q1:	1	247
513	14	Q1:	3
514	28	Q1:	3	78	125
515	28	Q1:	0	199
516	24	Q2:	3	495
517	14	Q0:	3	390	27
518	29	Q4:	1	393
519	35	Q4:	3
520	24	Q3:	2	408
521	31	Q1:	3	238
522	13	Q3:	3	85	469	158
523	20	Q2:	3	153
524	35	Q0:	2	480	142	400
525	13	Q1:	1	247
526	15	Q3:	2	386
527	34	Q0:	1	500	454
528	27	Q0:	1	96
529	24	Q4:	0	33	320	305
530	28	Q3:	3	384	27
531	17	Q1:	1	413
532	24	Q4:	0
533	36	Q3:	2	248	268
534	16	Q1:	2	463
535	15	Q2:	0	27	261	55
536	26	Q4:	2	90
537	35	Q1:	0	193	91	230
538	16	Q2:	1	204
539	22	Q2:	0	23
540	26	Q2:	3	54
541	40	Q1:	3
542	9	Q4:	1	217
543	37	Q3:	1
544	28	Q3:	3	83	1
545	33	Q4:	3	467
546	39	Q3:	1	364
547	29	Q2:	0	53	507	241
548	9	Q3:	0	109	337
549	23	Q4:	3	359
550	9	Q0:	0	390	282
551	14	Q3:	2
552	19	Q3:	3
553	34	Q2:	0	6
554	30	Q1:	3
555	39	Q1:	0	115
556	13	Q3:	3	86	29
557	33	Q1:	3	59
558	37	Q1:	3	272
559	9	Q4:	0	229
560	17	Q0:	3	413	20	191	27
561	11	Q3:	0	238	33
562	29	Q0:	0	27	370
563	19	Q2:	2	190	490
564	27	Q3:	2	23	472	444	378
565	32	Q2:	3
566	26	Q4:	1	76
567	21	Q0:	3
568	24	Q0:	1	252
569	33	Q3:	3
570	39	Q4:	0
571	13	Q3:	1	359	102	79	110
572	9	Q4:	1	477	60	199
573	40	Q3:	3	5
574	38	Q0:	1
575	36	Q2:	3
576	23	Q0:	2
577	39	Q3:	0
578	20	Q1:	3
579	35	Q4:	1	126
580	38	Q0:	2	144	58	295	197
581	29	Q1:	3
582	14	Q1:	0	252
583	24	Q0:	1	68
584	23	Q4:	1	430	407
585	32	Q2:	2	271
586	25	Q2:	3	447	117
587	36	Q4:	2
588	11	Q3:	2
589	33	Q2:	3	375
590	23	Q4:	2	528	120	449
591	34	Q1:	0	335
592	9	Q4:	0
593	9	Q1:	0	46
594	10	Q4:	1
595	32	Q1:	2	380	288	335
596	40	Q0:	1
597	38	Q1:	3	245
598	23	Q1:	1	42	464
599	16	Q2:	1	102	12
600	36	Q2:	0
601	27	Q3:	3	81
602	26	Q2:	2	526
603	35	Q2:	1	125
604	31	Q0:	0	286	68
605	32	Q4:	3	130	416	305	5
606	21	Q4:	2	370	563
607	23	Q1:	1	264	115
608	28	Q4:	0
609	32	Q0:	3	120
610	27	Q0:	2	63	576
611	13	Q3:	0	34	240
612	30	Q1:	1	449	412	108
613	18	Q1:	2	508
614	19	Q3:	2	71	97
615	19	Q4:	3	479
616	24	Q2:	3	276	454
617	34	Q1:	0	344	28	418	148	523
618	15	Q3:	2
619	27	Q3:	0
620	38	Q0:	0	69
621	30	Q1:	0
622	33	Q3:	2	290
623	16	Q0:	3	248
624	10	Q1:	2	159
625	30	Q2:	1	582	415
626	32	Q1:	3	310
627	36	Q4:	3	397	108
628	24	Q1:	1	509
629	24	Q1:	0	594	335
630	35	Q1:	3	454	230	434	250
631	26	Q0:	1
632	15	Q4:	2
633	34	Q4:	2	352	600	119	338
634	27	Q2:	3	625
635	19	Q3:	1	371	116	340	42
636	39	Q1:	3	420	549	594	100
637	16	Q0:	0	393	265	598	356
638	33	Q3:	1	231	223
639	13	Q0:	0	412
640	23	Q1:	1	461	423
641	38	Q3:	3	334	402	208	508
642	27	Q1:	3	334	225	369
643	35	Q1:	2	490	290
644	22	Q1:	1	207
645	29	Q2:	2	174	571
646	25	Q0:	3	443	195
647	13	Q1:	2	24
648	31	Q0:	3	607
649	31	Q2:	1	471	248
650	9	Q2:	2
651	21	Q3:	3	304
652	29	Q4:	3
653	28	Q3:	2	548
654	17	Q0:	3	382
655	24	Q2:	2	12	155
656	31	Q3:	1	376	83
657	37	Q0:	2	639	384	520	538
658	10	Q4:	0
659	18	Q0:	1	372
660	24	Q4:	1	342
661	36	Q1:	0
662	26	Q0:	2	25
663	35	Q4:	1
664	16	Q1:	1	125	73
665	31	Q0:	0	362	199
666	9	Q2:	1	133	219	41
667	21	Q0:	3
668	26	Q2:	0	12
669	13	Q0:	3	111
670	23	Q2:	1	630	258	637
671	14	Q3:	0	352
672	39	Q0:	2
673	24	Q3:	2	636
674	33	Q1:	2	519
675	21	Q1:	3
676	25	Q3:	2
677	40	Q3:	0	326	121	81	252	83
678	23	Q1:	2	659	622	516
679	39	Q4:	1	330	531	533	445
680	37	Q3:	2	54	500
681	12	Q0:	3	276	499	102
682	31	Q2:	0
683	21	Q2:	3
684	40	Q4:	1	107
685	34	Q0:	3	623
686	21	Q1:	1	43	140
687	23	Q0:	0	352
688	12	Q2:	3	426
689	24	Q0:	1	593	639
690	14	Q2:	3	615	421
691	13	Q2:	1	400	113	666
692	32	Q3:	0	141
693	22	Q2:	0
694	24	Q3:	1	209	184
695	11	Q0:	2
696	9	Q1:	2	684
697	35	Q2:	2
698	37	Q2:	0	682	107
699	29	Q1:	0
700	15	Q2:	2	555
701	30	Q3:	3	235
702	22	Q4:	2	390	316
703	26	Q2:	3
704	25	Q4:	2
705	17	Q1:	0
706	13	Q1:	2	475	192
707	10	Q3:	1	228
708	22	Q4:	3	198
709	22	Q1:	0	387
710	33	Q2:	2
711	12	Q1:	0
712	21	Q4:	2
713	22	Q4:	2	177
714	25	Q1:	2	299	417
715	9	Q0:	2
716	11	Q3:	2	402	199
717	20	Q2:	3	715	202
718	22	Q4:	0	379	77
719	28	Q3:	1	471
720	34	Q2:	0	306
721	39	Q1:	0
722	25	Q0:	3	195	304
723	17	Q3:	3
724	22	Q1:	1
725	16	Q1:	3	503
726	36	Q0:	1	229	678
727	27	Q2:	3	101	98
728	14	Q3:	0
729	34	Q1:	2	3
730	29	Q3:	3	275	35
731	19	Q0:	1	343	27
732	36	Q0:	3	508
733	19	Q3:	2	168	538
734	14	Q0:	0	413	138
735	34	Q3:	1	664
736	28	Q0:	1
737	34	Q1:	3	192	702
738	16	Q2:	2	286
739	12	Q3:	1	170
740	36	Q3:	2	478
741	33	Q4:	2	186	592	502
742	20	Q2:	0
743	23	Q0:	1	307	620
744	33	Q0:	3	74	456	349	136
745	26	Q3:	2	673
746	16	Q3:	1	737
747	22	Q3:	3	296
748	12	Q2:	2	411	336	744
749	17	Q0:	2	432
750	20	Q3:	0
751	16	Q2:	2	285	630
752	32	Q4:	2	749	585
753	32	Q4:	0	319	463
754	25	Q0:	0
755	14	Q3:	1	534
756	23	Q4:	0	645
757	12	Q4:	1
758	31	Q1:	3	22	701
759	15	Q0:	0	600	493
760	27	Q0:	0	675	100	46
761	25	Q2:	2	538	435	521
762	14	Q4:	3	359
763	37	Q3:	0
764	37	Q0:	2	533	46
765	13	Q0:	1	595	610
766	33	Q2:	2	548	325
767	22	Q1:	3
768	40	Q0:	2	567
769	26	Q3:	3	737
770	30	Q4:	1	236	18	411
771	38	Q1:	0	617	630
772	17	Q1:	3	241
773	31	Q1:	3	724	429	192
774	12	Q0:	3	742	285
775	25	Q0:	2
776	21	Q1:	0
777	20	Q2:	0	167
778	36	Q0:	0	729
779	28	Q3:	1	140
780	16	Q0:	1	349
781	27	Q3:	1
782	14	Q0:	1
783	30	Q2:	0	698
784	27	Q3:	2
785	14	Q2:	0	710
786	31	Q4:	3	465	469
787	35	Q4:	0	129	441	259
788	39	Q1:	2	34
789	10	Q1:	0	267	361
790	31	Q3:	2	495	225	200
791	38	Q3:	0	150
792	40	Q0:	0	74	182
793	21	Q3:	0	523	279	386
794	27	Q4:	1	635
795	9	Q2:	0	206
796	35	Q1:	2	228
797	37	Q2:	2	295	626
798	17	Q0:	0	705	655	637	164	757
799	22	Q2:	0	548
800	13	Q2:	1	544	478
801	18	Q4:	3	303	91	535
802	28	Q0:	1	353
803	35	Q1:	1	361	229
804	21	Q2:	1	352
805	18	Q2:	0	156
806	33	Q2:	3	187	499
807	17	Q2:	3	678	18
808	16	Q0:	0	174	599
809	11	Q0:	3
810	11	Q4:	1	686	371	19	611
811	18	Q4:	0	791	785
812	35	Q2:	1	285	503	339	473
813	11	Q4:	1	155
814	19	Q2:	0
815	13	Q3:	2	641	636	766	431
816	16	Q0:	0	137	56
817	21	Q0:	0	397	322
818	35	Q0:	3	437
819	32	Q0:	1
820	9	Q1:	0	704	301	387	145
821	28	Q0:	1	397
822	17	Q4:	3
823	20	Q2:	1
824	18	Q0:	0	104
825	10	Q3:	2	694	353
826	38	Q0:	0	539	392
827	37	Q0:	2	717
828	40	Q0:	1	314	7
829	38	Q1:	2
830	15	Q1:	0	710	827	381
831	37	Q1:	1	554	42
832	33	Q4:	0	73
833	36	Q0:	0	766	153
834	39	Q4:	2	814
835	24	Q0:	0
836	16	Q3:	2	783
837	32	Q4:	2	715	228
838	15	Q4:	2
839	36	Q4:	1	336	170
840	19	Q2:	2	90	523	57
841	36	Q0:	3	701	40	504
842	18	Q3:	2	772	166
843	21	Q4:	3	315	517
844	40	Q4:	2	686
845	37	Q4:	3	629	685	258	838
846	25	Q2:	0	376	135
847	24	Q2:	0	655
848	24	Q0:	0	659	722	646
849	34	Q0:	1	521	196	29	638	643
850	27	Q4:	0	250
851	26	Q2:	3	121
852	33	Q1:	2	772
853	38	Q1:	2	541	201	691	82
854	31	Q4:	1	673	25
855	37	Q4:	1	456	340
856	29	Q0:	0	550
857	10	Q2:	0	426	807
858	19	Q1:	1	327	421
859	28	Q3:	1	220	761	827
860	38	Q1:	1	145	766	377	543
861	37	Q3:	2	405	548
862	26	Q1:	1	618
863	16	Q4:	2	289	786	291	124	342
864	31	Q4:	0	188
865	34	Q1:	0	609
866	39	Q0:	2	18	141	733
867	21	Q4:	3
868	13	Q2:	3	388
869	10	Q3:	3	605	449	358
870	29	Q0:	2	319
871	31	Q1:	1	408
872	39	Q0:	0	135	395
873	40	Q3:	2	466	298	357
874	38	Q3:	2	460	661
875	31	Q3:	3
876	13	Q0:	2	653	806
877	22	Q4:	3	865	589	559	453
878	24	Q4:	3
879	22	Q3:	1	224	479	522	322
880	10	Q4:	0	691	532
881	17	Q3:	2	774	65	751
882	13	Q4:	0	709
883	29	Q1:	0	638
884	31	Q0:	0
885	29	Q4:	0	828	340
886	38	Q1:	3	199
887	35	Q3:	1	5
888	13	Q1:	1	578	859	293
889	12	Q0:	2	252	532
890	17	Q4:	0	180	475
891	40	Q1:	2	399	666
892	17	Q3:	0	783	535	27	40
893	39	Q2:	2
894	35	Q2:	2
895	19	Q2:	2	704	711	443	341	440
896	13	Q4:	0
897	35	Q4:	3	556	891	548
898	16	Q1:	1
899	33	Q4:	1
900	18	Q1:	3	351	167	581	387
901	25	Q4:	2
902	25	Q3:	1	362	609	78	669
903	33	Q3:	0	791
904	21	Q0:	1	208	411	491
905	39	Q2:	0	287
906	29	Q2:	1	139	710	641
907	27	Q4:	3
908	14	Q3:	2	758
909	36	Q0:	3	794
910	25	Q0:	0	601
911	36	Q1:	1	884
912	34	Q3:	2	417
913	21	Q4:	2	779	671
914	18	Q3:	2	581	630	717
915	11	Q1:	2	336
916	11	Q4:	2	357	478
917	17	Q4:	2	162	561
918	11	Q1:	0
919	32	Q3:	1	440
920	27	Q1:	2	559
921	22	Q0:	3	452	472	88	279
922	13	Q2:	1
923	26	Q4:	0	155
924	35	Q2:	0	602	564	919
925	10	Q2:	1	241	372	178
926	18	Q1:	1	875
927	9	Q2:	2
928	35	Q3:	3	507
929	12	Q1:	2	66	118
930	37	Q0:	3
931	26	Q0:	1	204
932	16	Q3:	2	679
933	11	Q0:	1	897	252	448	475	481	427
934	18	Q3:	3	608
935	16	Q3:	2	565	478	138	823
936	40	Q1:	3	24	398	679	284
937	40	Q2:	2	471	313	790
938	19	Q0:	2	334	444
939	15	Q0:	3	496
940	24	Q1:	3	917	131
941	24	Q3:	1	160	687
942	30	Q4:	0	395
943	28	Q3:	0	790	808
944	18	Q0:	1	222	858	868
945	9	Q4:	3	558	205
946	31	Q3:	2	351
947	32	Q3:	1	663	893	759
948	33	Q1:	3	530	220
949	32	Q3:	1	180	92
950	32	Q1:	0	530	741	778
951	21	Q4:	0	607	693
952	25	Q4:	3	303	662	51
953	13	Q4:	3	795	659	258
954	14	Q2:	1	315	528
955	31	Q0:	3	94	655
956	39	Q2:	1	415	294	120	855	876	149	6
957	30	Q4:	2	693
958	36	Q4:	3	221	20	437
959	9	Q2:	0	291	803
960	33	Q3:	0	859	622
961	35	Q1:	2	295	696
962	31	Q2:	0	417	122	522
963	29	Q1:	0	747	775
964	38	Q1:	1	154	471	793	798
965	36	Q2:	2	192	411	714
966	30	Q1:	1	253	68
967	19	Q2:	0
968	13	Q3:	0	827
969	32	Q3:	2	362
970	34	Q0:	2
971	36	Q1:	3	926	146
972	24	Q3:	0
973	21	Q1:	1	307	393
974	30	Q0:	3
975	15	Q3:	2	628	933
976	25	Q2:	1
977	10	Q3:	2	780	882	344
978	19	Q1:	3	233
979	32	Q4:	3	847	688	85
980	17	Q3:	0	933	757
981	15	Q0:	0
982	11	Q0:	2	87	946	21	399	32
983	22	Q0:	1
984	28	Q3:	2	375	581	289
985	22	Q2:	3
986	21	Q4:	1	252	174	575	797
987	18	Q0:	0	275
988	13	Q4:	1	281
989	31	Q2:	3	321	887
990	26	Q2:	0	687
991	33	Q2:	3	633	140	568
992	12	Q0:	0	448
993	19	Q0:	2	144	494	638	908
994	11	Q1:	0	512	654	364
995	27	Q1:	0	979
996	34	Q4:	0	385
997	20	Q4:	0	968	733	465
998	38	Q1:	0	501
999	18	Q3:	1	444	35
1000	35	Q4:	1	507	184	138
========================================================== 